p cnf 175 1388
1 2 3 4 5 0
6 7 8 9 10 0
11 12 13 14 15 0
16 17 18 19 20 0
21 22 23 24 25 0
26 27 28 29 30 0
31 32 33 34 35 0
36 37 38 39 40 0
41 42 43 44 45 0
46 47 48 49 50 0
51 52 53 54 55 0
56 57 58 59 60 0
61 62 63 64 65 0
66 67 68 69 70 0
71 72 73 74 75 0
76 77 78 79 80 0
81 82 83 84 85 0
86 87 88 89 90 0
91 92 93 94 95 0
96 97 98 99 100 0
101 102 103 104 105 0
106 107 108 109 110 0
111 112 113 114 115 0
116 117 118 119 120 0
121 122 123 124 125 0
126 127 128 129 130 0
131 132 133 134 135 0
136 137 138 139 140 0
141 142 143 144 145 0
146 147 148 149 150 0
151 152 153 154 155 0
156 157 158 159 160 0
161 162 163 164 165 0
166 167 168 169 170 0
171 172 173 174 175 0
-1 -2 0
-1 -3 0
-1 -4 0
-1 -5 0
-2 -3 0
-2 -4 0
-2 -5 0
-3 -4 0
-3 -5 0
-4 -5 0
-6 -7 0
-6 -8 0
-6 -9 0
-6 -10 0
-7 -8 0
-7 -9 0
-7 -10 0
-8 -9 0
-8 -10 0
-9 -10 0
-11 -12 0
-11 -13 0
-11 -14 0
-11 -15 0
-12 -13 0
-12 -14 0
-12 -15 0
-13 -14 0
-13 -15 0
-14 -15 0
-16 -17 0
-16 -18 0
-16 -19 0
-16 -20 0
-17 -18 0
-17 -19 0
-17 -20 0
-18 -19 0
-18 -20 0
-19 -20 0
-21 -22 0
-21 -23 0
-21 -24 0
-21 -25 0
-22 -23 0
-22 -24 0
-22 -25 0
-23 -24 0
-23 -25 0
-24 -25 0
-26 -27 0
-26 -28 0
-26 -29 0
-26 -30 0
-27 -28 0
-27 -29 0
-27 -30 0
-28 -29 0
-28 -30 0
-29 -30 0
-31 -32 0
-31 -33 0
-31 -34 0
-31 -35 0
-32 -33 0
-32 -34 0
-32 -35 0
-33 -34 0
-33 -35 0
-34 -35 0
-36 -37 0
-36 -38 0
-36 -39 0
-36 -40 0
-37 -38 0
-37 -39 0
-37 -40 0
-38 -39 0
-38 -40 0
-39 -40 0
-41 -42 0
-41 -43 0
-41 -44 0
-41 -45 0
-42 -43 0
-42 -44 0
-42 -45 0
-43 -44 0
-43 -45 0
-44 -45 0
-46 -47 0
-46 -48 0
-46 -49 0
-46 -50 0
-47 -48 0
-47 -49 0
-47 -50 0
-48 -49 0
-48 -50 0
-49 -50 0
-51 -52 0
-51 -53 0
-51 -54 0
-51 -55 0
-52 -53 0
-52 -54 0
-52 -55 0
-53 -54 0
-53 -55 0
-54 -55 0
-56 -57 0
-56 -58 0
-56 -59 0
-56 -60 0
-57 -58 0
-57 -59 0
-57 -60 0
-58 -59 0
-58 -60 0
-59 -60 0
-61 -62 0
-61 -63 0
-61 -64 0
-61 -65 0
-62 -63 0
-62 -64 0
-62 -65 0
-63 -64 0
-63 -65 0
-64 -65 0
-66 -67 0
-66 -68 0
-66 -69 0
-66 -70 0
-67 -68 0
-67 -69 0
-67 -70 0
-68 -69 0
-68 -70 0
-69 -70 0
-71 -72 0
-71 -73 0
-71 -74 0
-71 -75 0
-72 -73 0
-72 -74 0
-72 -75 0
-73 -74 0
-73 -75 0
-74 -75 0
-76 -77 0
-76 -78 0
-76 -79 0
-76 -80 0
-77 -78 0
-77 -79 0
-77 -80 0
-78 -79 0
-78 -80 0
-79 -80 0
-81 -82 0
-81 -83 0
-81 -84 0
-81 -85 0
-82 -83 0
-82 -84 0
-82 -85 0
-83 -84 0
-83 -85 0
-84 -85 0
-86 -87 0
-86 -88 0
-86 -89 0
-86 -90 0
-87 -88 0
-87 -89 0
-87 -90 0
-88 -89 0
-88 -90 0
-89 -90 0
-91 -92 0
-91 -93 0
-91 -94 0
-91 -95 0
-92 -93 0
-92 -94 0
-92 -95 0
-93 -94 0
-93 -95 0
-94 -95 0
-96 -97 0
-96 -98 0
-96 -99 0
-96 -100 0
-97 -98 0
-97 -99 0
-97 -100 0
-98 -99 0
-98 -100 0
-99 -100 0
-101 -102 0
-101 -103 0
-101 -104 0
-101 -105 0
-102 -103 0
-102 -104 0
-102 -105 0
-103 -104 0
-103 -105 0
-104 -105 0
-106 -107 0
-106 -108 0
-106 -109 0
-106 -110 0
-107 -108 0
-107 -109 0
-107 -110 0
-108 -109 0
-108 -110 0
-109 -110 0
-111 -112 0
-111 -113 0
-111 -114 0
-111 -115 0
-112 -113 0
-112 -114 0
-112 -115 0
-113 -114 0
-113 -115 0
-114 -115 0
-116 -117 0
-116 -118 0
-116 -119 0
-116 -120 0
-117 -118 0
-117 -119 0
-117 -120 0
-118 -119 0
-118 -120 0
-119 -120 0
-121 -122 0
-121 -123 0
-121 -124 0
-121 -125 0
-122 -123 0
-122 -124 0
-122 -125 0
-123 -124 0
-123 -125 0
-124 -125 0
-126 -127 0
-126 -128 0
-126 -129 0
-126 -130 0
-127 -128 0
-127 -129 0
-127 -130 0
-128 -129 0
-128 -130 0
-129 -130 0
-131 -132 0
-131 -133 0
-131 -134 0
-131 -135 0
-132 -133 0
-132 -134 0
-132 -135 0
-133 -134 0
-133 -135 0
-134 -135 0
-136 -137 0
-136 -138 0
-136 -139 0
-136 -140 0
-137 -138 0
-137 -139 0
-137 -140 0
-138 -139 0
-138 -140 0
-139 -140 0
-141 -142 0
-141 -143 0
-141 -144 0
-141 -145 0
-142 -143 0
-142 -144 0
-142 -145 0
-143 -144 0
-143 -145 0
-144 -145 0
-146 -147 0
-146 -148 0
-146 -149 0
-146 -150 0
-147 -148 0
-147 -149 0
-147 -150 0
-148 -149 0
-148 -150 0
-149 -150 0
-151 -152 0
-151 -153 0
-151 -154 0
-151 -155 0
-152 -153 0
-152 -154 0
-152 -155 0
-153 -154 0
-153 -155 0
-154 -155 0
-156 -157 0
-156 -158 0
-156 -159 0
-156 -160 0
-157 -158 0
-157 -159 0
-157 -160 0
-158 -159 0
-158 -160 0
-159 -160 0
-161 -162 0
-161 -163 0
-161 -164 0
-161 -165 0
-162 -163 0
-162 -164 0
-162 -165 0
-163 -164 0
-163 -165 0
-164 -165 0
-166 -167 0
-166 -168 0
-166 -169 0
-166 -170 0
-167 -168 0
-167 -169 0
-167 -170 0
-168 -169 0
-168 -170 0
-169 -170 0
-171 -172 0
-171 -173 0
-171 -174 0
-171 -175 0
-172 -173 0
-172 -174 0
-172 -175 0
-173 -174 0
-173 -175 0
-174 -175 0
-4 -8 0
-1 -10 0
-4 -7 0
-3 -6 0
-1 -9 0
-4 -9 0
-1 -7 0
-2 -8 0
-2 -10 0
-4 -6 0
-2 -9 0
-3 -9 0
-4 -10 0
-5 -6 0
-2 -6 0
-5 -7 0
-5 -10 0
-1 -30 0
-5 -26 0
-2 -28 0
-5 -30 0
-2 -27 0
-1 -28 0
-5 -28 0
-5 -27 0
-3 -29 0
-1 -29 0
-5 -29 0
-3 -26 0
-4 -29 0
-1 -27 0
-3 -30 0
-4 -27 0
-3 -27 0
-5 -90 0
-4 -86 0
-3 -88 0
-4 -88 0
-3 -87 0
-3 -89 0
-2 -87 0
-3 -86 0
-1 -86 0
-5 -89 0
-2 -88 0
-5 -88 0
-2 -89 0
-3 -90 0
-2 -86 0
-1 -87 0
-5 -87 0
-5 -137 0
-3 -140 0
-4 -138 0
-5 -139 0
-2 -136 0
-3 -139 0
-4 -139 0
-3 -137 0
-2 -139 0
-4 -137 0
-4 -140 0
-5 -136 0
-1 -139 0
-1 -138 0
-1 -136 0
-5 -138 0
-4 -136 0
-8 -61 0
-6 -62 0
-10 -61 0
-7 -61 0
-8 -64 0
-7 -62 0
-8 -63 0
-6 -64 0
-6 -61 0
-9 -64 0
-6 -63 0
-10 -63 0
-9 -62 0
-10 -64 0
-6 -65 0
-7 -65 0
-9 -61 0
-10 -92 0
-7 -91 0
-6 -92 0
-10 -91 0
-6 -94 0
-9 -94 0
-10 -94 0
-9 -95 0
-8 -95 0
-7 -95 0
-8 -93 0
-7 -92 0
-6 -91 0
-10 -95 0
-6 -95 0
-6 -93 0
-8 -92 0
-9 -141 0
-9 -143 0
-7 -142 0
-7 -143 0
-6 -144 0
-6 -141 0
-10 -145 0
-8 -141 0
-8 -145 0
-7 -145 0
-6 -145 0
-8 -144 0
-10 -144 0
-10 -143 0
-9 -144 0
-7 -144 0
-8 -143 0
-12 -26 0
-15 -30 0
-14 -30 0
-14 -27 0
-15 -27 0
-15 -29 0
-15 -26 0
-14 -26 0
-11 -26 0
-12 -30 0
-13 -28 0
-13 -29 0
-12 -29 0
-13 -30 0
-11 -30 0
-13 -26 0
-11 -28 0
-13 -102 0
-15 -103 0
-14 -104 0
-15 -105 0
-11 -101 0
-15 -102 0
-13 -105 0
-11 -103 0
-11 -102 0
-15 -104 0
-15 -101 0
-12 -102 0
-13 -104 0
-13 -101 0
-11 -104 0
-12 -103 0
-14 -103 0
-19 -25 0
-17 -25 0
-16 -23 0
-16 -24 0
-18 -24 0
-19 -24 0
-20 -23 0
-17 -21 0
-20 -24 0
-18 -21 0
-18 -22 0
-17 -24 0
-16 -22 0
-16 -25 0
-17 -22 0
-17 -23 0
-20 -22 0
-16 -40 0
-16 -36 0
-17 -40 0
-20 -36 0
-16 -38 0
-18 -39 0
-17 -37 0
-20 -37 0
-18 -40 0
-18 -36 0
-20 -38 0
-16 -39 0
-18 -38 0
-19 -40 0
-16 -37 0
-17 -36 0
-19 -38 0
-16 -51 0
-18 -52 0
-16 -52 0
-20 -53 0
-20 -54 0
-19 -51 0
-17 -51 0
-19 -54 0
-19 -53 0
-17 -53 0
-17 -54 0
-19 -55 0
-20 -55 0
-18 -51 0
-18 -53 0
-19 -52 0
-20 -51 0
-18 -71 0
-16 -75 0
-19 -74 0
-19 -71 0
-16 -74 0
-17 -74 0
-20 -72 0
-18 -74 0
-20 -74 0
-19 -75 0
-17 -72 0
-16 -72 0
-20 -75 0
-18 -72 0
-17 -71 0
-18 -75 0
-18 -73 0
-20 -84 0
-18 -82 0
-16 -81 0
-16 -84 0
-19 -82 0
-19 -85 0
-16 -85 0
-16 -83 0
-20 -85 0
-19 -83 0
-20 -83 0
-17 -82 0
-18 -81 0
-16 -82 0
-19 -84 0
-18 -85 0
-20 -81 0
-16 -93 0
-20 -93 0
-19 -93 0
-18 -94 0
-18 -92 0
-18 -91 0
-18 -95 0
-18 -93 0
-16 -95 0
-19 -91 0
-16 -92 0
-17 -92 0
-16 -94 0
-19 -94 0
-16 -91 0
-20 -91 0
-17 -91 0
-20 -124 0
-16 -122 0
-18 -124 0
-19 -123 0
-16 -125 0
-16 -121 0
-18 -121 0
-19 -122 0
-17 -125 0
-17 -123 0
-16 -123 0
-16 -124 0
-19 -121 0
-19 -124 0
-17 -121 0
-19 -125 0
-20 -121 0
-25 -51 0
-23 -54 0
-23 -52 0
-22 -54 0
-21 -51 0
-25 -54 0
-24 -53 0
-23 -51 0
-25 -55 0
-24 -52 0
-22 -52 0
-23 -53 0
-22 -53 0
-25 -53 0
-24 -54 0
-24 -51 0
-21 -52 0
-24 -66 0
-21 -70 0
-25 -68 0
-24 -68 0
-25 -69 0
-22 -68 0
-24 -70 0
-25 -66 0
-24 -69 0
-21 -69 0
-22 -67 0
-23 -68 0
-23 -70 0
-23 -67 0
-22 -70 0
-25 -67 0
-22 -66 0
-21 -72 0
-24 -75 0
-22 -73 0
-25 -71 0
-25 -73 0
-22 -74 0
-23 -71 0
-23 -73 0
-21 -73 0
-22 -71 0
-21 -75 0
-24 -73 0
-24 -71 0
-22 -72 0
-25 -74 0
-23 -74 0
-24 -72 0
-24 -97 0
-25 -99 0
-21 -99 0
-21 -98 0
-22 -100 0
-21 -96 0
-25 -98 0
-21 -100 0
-23 -96 0
-22 -96 0
-22 -98 0
-24 -98 0
-24 -99 0
-21 -97 0
-25 -97 0
-23 -99 0
-24 -96 0
-24 -114 0
-25 -114 0
-25 -115 0
-24 -111 0
-21 -113 0
-21 -114 0
-23 -113 0
-24 -115 0
-22 -113 0
-22 -112 0
-23 -111 0
-25 -113 0
-25 -112 0
-22 -111 0
-21 -111 0
-23 -112 0
-23 -115 0
-29 -120 0
-30 -118 0
-26 -116 0
-28 -118 0
-26 -119 0
-28 -116 0
-26 -118 0
-30 -117 0
-27 -118 0
-30 -119 0
-27 -117 0
-26 -120 0
-29 -118 0
-26 -117 0
-29 -117 0
-28 -117 0
-30 -120 0
-35 -149 0
-31 -148 0
-32 -150 0
-34 -148 0
-34 -146 0
-31 -147 0
-35 -146 0
-33 -146 0
-35 -147 0
-31 -149 0
-33 -148 0
-33 -147 0
-31 -150 0
-31 -146 0
-32 -149 0
-32 -146 0
-34 -150 0
-34 -167 0
-33 -168 0
-33 -169 0
-34 -168 0
-34 -166 0
-32 -170 0
-35 -170 0
-31 -168 0
-32 -168 0
-31 -166 0
-33 -167 0
-32 -169 0
-35 -169 0
-33 -170 0
-34 -170 0
-31 -169 0
-31 -170 0
-38 -73 0
-40 -75 0
-36 -74 0
-37 -71 0
-37 -72 0
-40 -73 0
-38 -74 0
-38 -71 0
-39 -74 0
-36 -73 0
-40 -72 0
-37 -73 0
-40 -74 0
-39 -73 0
-40 -71 0
-36 -72 0
-36 -75 0
-39 -96 0
-40 -96 0
-36 -97 0
-40 -100 0
-36 -98 0
-38 -99 0
-38 -97 0
-36 -99 0
-40 -99 0
-36 -100 0
-36 -96 0
-39 -98 0
-39 -99 0
-40 -98 0
-39 -100 0
-39 -97 0
-37 -99 0
-40 -161 0
-37 -161 0
-38 -162 0
-36 -162 0
-40 -163 0
-38 -161 0
-40 -164 0
-37 -163 0
-38 -165 0
-40 -165 0
-36 -164 0
-40 -162 0
-39 -164 0
-38 -164 0
-39 -161 0
-39 -165 0
-36 -163 0
-45 -46 0
-42 -50 0
-45 -49 0
-44 -49 0
-42 -46 0
-45 -47 0
-44 -46 0
-41 -48 0
-43 -50 0
-41 -49 0
-41 -47 0
-43 -49 0
-45 -50 0
-42 -49 0
-41 -50 0
-43 -48 0
-43 -47 0
-44 -64 0
-41 -61 0
-45 -64 0
-44 -65 0
-42 -63 0
-41 -62 0
-41 -63 0
-44 -63 0
-42 -61 0
-45 -63 0
-43 -63 0
-43 -64 0
-42 -64 0
-43 -62 0
-44 -61 0
-43 -61 0
-42 -62 0
-44 -122 0
-45 -125 0
-44 -123 0
-45 -124 0
-45 -122 0
-41 -122 0
-44 -125 0
-43 -123 0
-41 -125 0
-42 -122 0
-42 -124 0
-41 -121 0
-44 -124 0
-41 -123 0
-43 -122 0
-44 -121 0
-42 -123 0
-41 -164 0
-41 -162 0
-42 -163 0
-45 -164 0
-43 -163 0
-45 -161 0
-43 -162 0
-42 -161 0
-44 -165 0
-44 -162 0
-43 -161 0
-43 -165 0
-45 -162 0
-42 -162 0
-45 -163 0
-45 -165 0
-42 -164 0
-48 -52 0
-47 -51 0
-48 -54 0
-46 -54 0
-47 -55 0
-47 -52 0
-50 -54 0
-50 -53 0
-50 -51 0
-50 -52 0
-48 -51 0
-50 -55 0
-49 -51 0
-46 -51 0
-49 -53 0
-49 -55 0
-46 -53 0
-48 -116 0
-49 -120 0
-49 -117 0
-49 -119 0
-46 -117 0
-47 -119 0
-50 -119 0
-47 -120 0
-46 -118 0
-48 -117 0
-49 -116 0
-46 -119 0
-48 -118 0
-46 -116 0
-50 -117 0
-46 -120 0
-50 -116 0
-54 -57 0
-51 -58 0
-51 -60 0
-55 -59 0
-54 -59 0
-52 -60 0
-53 -57 0
-55 -56 0
-53 -56 0
-53 -58 0
-52 -56 0
-54 -56 0
-55 -60 0
-52 -58 0
-51 -59 0
-54 -58 0
-53 -60 0
-53 -145 0
-54 -144 0
-53 -143 0
-54 -145 0
-55 -145 0
-55 -143 0
-52 -143 0
-55 -142 0
-54 -143 0
-54 -142 0
-53 -141 0
-52 -141 0
-51 -145 0
-54 -141 0
-55 -144 0
-51 -142 0
-52 -144 0
-60 -69 0
-58 -66 0
-58 -70 0
-60 -67 0
-59 -67 0
-57 -68 0
-59 -69 0
-59 -66 0
-57 -69 0
-59 -70 0
-60 -66 0
-60 -70 0
-58 -67 0
-58 -68 0
-56 -69 0
-60 -68 0
-57 -70 0
-59 -79 0
-59 -78 0
-57 -77 0
-58 -76 0
-58 -79 0
-57 -80 0
-58 -80 0
-56 -76 0
-56 -80 0
-59 -80 0
-57 -78 0
-56 -77 0
-58 -78 0
-59 -76 0
-58 -77 0
-59 -77 0
-60 -77 0
-60 -112 0
-58 -114 0
-58 -115 0
-59 -114 0
-57 -112 0
-60 -113 0
-56 -112 0
-58 -112 0
-56 -114 0
-60 -115 0
-57 -113 0
-56 -113 0
-56 -115 0
-59 -113 0
-57 -115 0
-60 -111 0
-58 -113 0
-58 -170 0
-60 -166 0
-57 -166 0
-59 -167 0
-60 -170 0
-56 -167 0
-59 -168 0
-60 -167 0
-58 -166 0
-60 -168 0
-56 -170 0
-60 -169 0
-57 -169 0
-57 -168 0
-57 -167 0
-56 -166 0
-58 -169 0
-62 -99 0
-64 -96 0
-62 -97 0
-61 -98 0
-62 -96 0
-61 -99 0
-63 -98 0
-63 -99 0
-63 -97 0
-61 -100 0
-64 -98 0
-62 -100 0
-64 -100 0
-65 -96 0
-62 -98 0
-63 -100 0
-63 -96 0
-68 -79 0
-70 -80 0
-66 -76 0
-70 -77 0
-70 -76 0
-67 -77 0
-66 -78 0
-70 -79 0
-70 -78 0
-69 -80 0
-66 -77 0
-68 -78 0
-67 -76 0
-69 -79 0
-68 -77 0
-66 -79 0
-69 -77 0
-69 -120 0
-68 -117 0
-68 -118 0
-70 -120 0
-69 -119 0
-67 -117 0
-70 -119 0
-70 -117 0
-69 -116 0
-68 -116 0
-66 -120 0
-66 -119 0
-67 -116 0
-67 -118 0
-66 -118 0
-70 -116 0
-68 -119 0
-70 -148 0
-69 -149 0
-68 -148 0
-68 -149 0
-66 -150 0
-68 -147 0
-66 -146 0
-68 -150 0
-69 -146 0
-67 -146 0
-67 -149 0
-67 -150 0
-69 -150 0
-69 -148 0
-66 -148 0
-68 -146 0
-67 -147 0
-71 -109 0
-71 -106 0
-73 -110 0
-74 -107 0
-72 -107 0
-75 -108 0
-71 -108 0
-74 -106 0
-75 -107 0
-71 -110 0
-74 -110 0
-72 -106 0
-74 -109 0
-75 -106 0
-75 -110 0
-72 -109 0
-72 -108 0
-73 -131 0
-74 -135 0
-71 -131 0
-71 -134 0
-72 -132 0
-71 -135 0
-74 -131 0
-74 -133 0
-71 -132 0
-75 -134 0
-72 -134 0
-74 -134 0
-72 -133 0
-75 -132 0
-73 -132 0
-73 -133 0
-71 -133 0
-79 -94 0
-78 -94 0
-79 -95 0
-77 -92 0
-80 -95 0
-79 -91 0
-79 -93 0
-80 -92 0
-77 -93 0
-80 -94 0
-80 -93 0
-76 -91 0
-77 -95 0
-80 -91 0
-76 -94 0
-76 -93 0
-76 -95 0
-80 -105 0
-80 -104 0
-78 -101 0
-76 -104 0
-78 -103 0
-76 -101 0
-79 -101 0
-79 -104 0
-77 -104 0
-79 -103 0
-77 -103 0
-80 -101 0
-76 -103 0
-78 -102 0
-77 -101 0
-79 -105 0
-78 -105 0
-80 -132 0
-78 -132 0
-77 -133 0
-78 -131 0
-78 -135 0
-80 -133 0
-79 -134 0
-79 -135 0
-76 -131 0
-77 -132 0
-77 -135 0
-79 -132 0
-76 -132 0
-78 -133 0
-76 -133 0
-79 -133 0
-77 -131 0
-87 -110 0
-90 -108 0
-86 -109 0
-90 -109 0
-88 -110 0
-89 -108 0
-86 -108 0
-87 -108 0
-87 -109 0
-89 -106 0
-89 -107 0
-89 -110 0
-90 -106 0
-86 -106 0
-88 -108 0
-86 -107 0
-89 -109 0
-93 -113 0
-93 -111 0
-95 -113 0
-93 -115 0
-95 -114 0
-91 -111 0
-94 -112 0
-91 -115 0
-95 -115 0
-92 -111 0
-94 -111 0
-94 -115 0
-94 -113 0
-91 -113 0
-94 -114 0
-92 -114 0
-91 -112 0
-100 -153 0
-96 -152 0
-100 -155 0
-96 -151 0
-98 -155 0
-97 -151 0
-100 -151 0
-99 -152 0
-99 -154 0
-97 -155 0
-97 -152 0
-96 -153 0
-98 -152 0
-96 -155 0
-97 -154 0
-96 -154 0
-100 -154 0
-96 -156 0
-97 -159 0
-99 -158 0
-96 -159 0
-98 -157 0
-98 -159 0
-100 -158 0
-97 -156 0
-100 -156 0
-99 -156 0
-96 -160 0
-99 -159 0
-99 -157 0
-99 -160 0
-100 -159 0
-97 -158 0
-96 -157 0
-111 -159 0
-113 -158 0
-115 -156 0
-111 -160 0
-112 -158 0
-114 -159 0
-112 -156 0
-113 -156 0
-115 -160 0
-115 -157 0
-111 -156 0
-114 -160 0
-113 -160 0
-112 -157 0
-115 -159 0
-112 -159 0
-114 -157 0
-119 -170 0
-120 -168 0
-120 -167 0
-116 -166 0
-118 -168 0
-117 -169 0
-119 -169 0
-118 -167 0
-116 -170 0
-120 -166 0
-117 -168 0
-118 -169 0
-116 -169 0
-116 -168 0
-117 -166 0
-117 -167 0
-119 -166 0
-119 -171 0
-117 -171 0
-116 -172 0
-117 -174 0
-118 -174 0
-120 -174 0
-116 -174 0
-119 -175 0
-118 -172 0
-118 -171 0
-120 -172 0
-117 -173 0
-118 -173 0
-116 -171 0
-117 -172 0
-120 -175 0
-119 -174 0
-135 -157 0
-134 -157 0
-134 -159 0
-133 -156 0
-133 -160 0
-131 -157 0
-134 -160 0
-131 -158 0
-135 -156 0
-132 -158 0
-132 -160 0
-132 -157 0
-133 -157 0
-132 -159 0
-131 -159 0
-134 -156 0
-131 -160 0
-137 -156 0
-140 -158 0
-136 -156 0
-137 -158 0
-140 -157 0
-139 -160 0
-139 -156 0
-140 -160 0
-137 -160 0
-136 -158 0
-137 -157 0
-138 -160 0
-138 -159 0
-138 -156 0
-137 -159 0
-140 -159 0
-138 -157 0
-139 -169 0
-140 -169 0
-136 -166 0
-139 -166 0
-140 -170 0
-138 -169 0
-139 -168 0
-140 -168 0
-139 -167 0
-137 -170 0
-137 -167 0
-138 -168 0
-140 -166 0
-138 -166 0
-136 -168 0
-136 -169 0
-137 -169 0
-150 -171 0
-147 -175 0
-149 -174 0
-150 -174 0
-146 -174 0
-147 -173 0
-149 -175 0
-146 -175 0
-149 -171 0
-148 -171 0
-150 -173 0
-147 -172 0
-148 -173 0
-146 -171 0
-149 -172 0
-150 -172 0
-148 -172 0
